c b=9,c=513
p cnf 27 36
9 -18 0
9 -27 0
-9 18 0
-9 27 0
8 -17 0
8 -26 0
-8 17 0
-8 26 0
7 -16 0
7 -25 0
-7 16 0
-7 25 0
6 -15 0
6 -24 0
-6 15 0
-6 24 0
5 -14 0
5 -23 0
-5 14 0
-5 23 0
4 -13 0
4 -22 0
-4 13 0
-4 22 0
3 -12 0
3 -21 0
-3 12 0
-3 21 0
2 -11 0
2 -20 0
-2 11 0
-2 20 0
1 -10 0
1 -19 0
-1 10 0
-1 19 0
